-341.0 8.0 5.0 4.0 2.0 10.0 4.0 6.0 10.0 6.0 6.0 10.0 3.0 5.0 8.0 10.0 6.0 5.0 1.0 5.0 3.0 0.0 0.0 3.0 2.0 6.0 1.0 7.0 2.0 0.0 6.0 3.0 1.0 6.0 7.0 9.0 10.0 2.0 9.0 6.0 2.0 7.0 1.0 10.0 3.0 0.0 5.0 3.0 4.0 6.0 5.0 6.0 3.0 7.0 1.0 4.0 7.0 8.0 9.0 5.0 9.0 10.0 10.0 10.0 9.0 0.0 
8.0 -341.0 5.0 9.0 5.0 8.0 5.0 10.0 3.0 3.0 9.0 1.0 7.0 6.0 6.0 9.0 9.0 1.0 4.0 8.0 3.0 7.0 9.0 10.0 4.0 8.0 6.0 10.0 7.0 10.0 9.0 1.0 3.0 5.0 3.0 4.0 4.0 3.0 3.0 5.0 10.0 2.0 3.0 4.0 5.0 10.0 9.0 8.0 4.0 6.0 7.0 10.0 1.0 1.0 7.0 2.0 1.0 10.0 4.0 4.0 3.0 0.0 0.0 0.0 0.0 0.0 
5.0 5.0 -343.0 9.0 3.0 5.0 3.0 7.0 4.0 0.0 4.0 4.0 10.0 8.0 8.0 1.0 0.0 5.0 10.0 9.0 5.0 4.0 4.0 6.0 7.0 9.0 2.0 10.0 2.0 2.0 10.0 9.0 7.0 9.0 3.0 3.0 7.0 0.0 5.0 0.0 6.0 9.0 3.0 7.0 9.0 0.0 7.0 0.0 4.0 5.0 8.0 2.0 9.0 7.0 0.0 1.0 6.0 2.0 4.0 8.0 10.0 7.0 10.0 10.0 1.0 4.0 
4.0 9.0 9.0 -321.0 4.0 8.0 5.0 3.0 3.0 10.0 0.0 0.0 9.0 2.0 1.0 8.0 0.0 8.0 2.0 9.0 2.0 10.0 3.0 5.0 1.0 1.0 8.0 5.0 4.0 3.0 8.0 3.0 5.0 0.0 5.0 3.0 4.0 7.0 6.0 8.0 1.0 3.0 5.0 0.0 3.0 9.0 9.0 8.0 8.0 3.0 5.0 7.0 6.0 6.0 6.0 5.0 7.0 7.0 0.0 3.0 3.0 9.0 0.0 8.0 5.0 10.0 
2.0 5.0 3.0 4.0 -304.0 2.0 7.0 7.0 8.0 7.0 1.0 6.0 9.0 3.0 1.0 1.0 10.0 8.0 5.0 6.0 0.0 10.0 3.0 0.0 2.0 0.0 9.0 9.0 3.0 4.0 9.0 4.0 1.0 8.0 6.0 3.0 4.0 3.0 2.0 10.0 5.0 9.0 4.0 0.0 1.0 2.0 10.0 5.0 0.0 8.0 10.0 5.0 5.0 1.0 2.0 2.0 7.0 2.0 10.0 5.0 4.0 3.0 1.0 1.0 8.0 9.0 
10.0 8.0 5.0 8.0 2.0 -328.0 1.0 8.0 9.0 10.0 1.0 2.0 1.0 8.0 1.0 3.0 8.0 1.0 8.0 1.0 6.0 3.0 3.0 8.0 9.0 7.0 3.0 4.0 5.0 3.0 1.0 8.0 8.0 1.0 2.0 10.0 6.0 10.0 3.0 0.0 0.0 1.0 6.0 8.0 10.0 7.0 6.0 10.0 6.0 1.0 1.0 6.0 7.0 10.0 1.0 2.0 5.0 3.0 1.0 10.0 1.0 9.0 3.0 8.0 10.0 1.0 
4.0 5.0 3.0 5.0 7.0 1.0 -299.0 1.0 6.0 6.0 6.0 7.0 2.0 0.0 2.0 1.0 1.0 2.0 2.0 5.0 8.0 7.0 1.0 10.0 2.0 5.0 5.0 10.0 5.0 1.0 7.0 5.0 0.0 3.0 7.0 4.0 9.0 2.0 10.0 3.0 10.0 5.0 10.0 4.0 9.0 7.0 2.0 5.0 9.0 3.0 0.0 9.0 3.0 1.0 5.0 0.0 1.0 9.0 2.0 5.0 3.0 10.0 1.0 6.0 10.0 0.0 
6.0 10.0 7.0 3.0 7.0 8.0 1.0 -302.0 10.0 0.0 0.0 3.0 6.0 3.0 0.0 2.0 1.0 1.0 7.0 2.0 2.0 9.0 5.0 6.0 6.0 9.0 5.0 10.0 7.0 5.0 5.0 1.0 6.0 8.0 9.0 3.0 3.0 4.0 0.0 3.0 3.0 8.0 8.0 10.0 2.0 1.0 8.0 5.0 1.0 3.0 8.0 3.0 10.0 0.0 1.0 7.0 1.0 1.0 4.0 10.0 4.0 0.0 3.0 2.0 10.0 6.0 
10.0 3.0 4.0 3.0 8.0 9.0 6.0 10.0 -340.0 4.0 3.0 9.0 9.0 4.0 2.0 5.0 9.0 10.0 8.0 1.0 9.0 5.0 0.0 9.0 8.0 10.0 3.0 8.0 1.0 4.0 5.0 0.0 4.0 6.0 7.0 6.0 0.0 5.0 2.0 5.0 9.0 7.0 2.0 1.0 3.0 1.0 10.0 4.0 4.0 1.0 9.0 6.0 3.0 5.0 6.0 6.0 10.0 3.0 0.0 8.0 0.0 7.0 7.0 4.0 3.0 7.0 
6.0 3.0 0.0 10.0 7.0 10.0 6.0 0.0 4.0 -338.0 3.0 9.0 10.0 3.0 9.0 6.0 7.0 1.0 10.0 5.0 7.0 4.0 6.0 4.0 3.0 2.0 0.0 8.0 9.0 6.0 8.0 5.0 2.0 4.0 4.0 9.0 10.0 6.0 0.0 6.0 2.0 10.0 1.0 10.0 3.0 3.0 4.0 2.0 1.0 2.0 0.0 9.0 4.0 2.0 10.0 2.0 8.0 9.0 1.0 1.0 1.0 10.0 10.0 9.0 7.0 5.0 
6.0 9.0 4.0 0.0 1.0 1.0 6.0 0.0 3.0 3.0 -272.0 0.0 4.0 0.0 4.0 3.0 9.0 4.0 6.0 3.0 4.0 7.0 3.0 1.0 2.0 1.0 5.0 4.0 3.0 6.0 3.0 9.0 0.0 0.0 0.0 8.0 9.0 8.0 0.0 9.0 10.0 0.0 3.0 3.0 7.0 1.0 5.0 9.0 5.0 1.0 7.0 2.0 3.0 7.0 3.0 6.0 6.0 10.0 6.0 2.0 8.0 2.0 2.0 6.0 0.0 10.0 
10.0 1.0 4.0 0.0 6.0 2.0 7.0 3.0 9.0 9.0 0.0 -320.0 3.0 0.0 2.0 0.0 5.0 3.0 3.0 2.0 0.0 3.0 5.0 0.0 2.0 8.0 3.0 9.0 9.0 4.0 10.0 2.0 0.0 7.0 2.0 6.0 4.0 10.0 0.0 10.0 6.0 10.0 6.0 10.0 8.0 9.0 7.0 0.0 3.0 4.0 0.0 2.0 7.0 3.0 7.0 10.0 3.0 9.0 7.0 10.0 8.0 7.0 3.0 10.0 0.0 8.0 
3.0 7.0 10.0 9.0 9.0 1.0 2.0 6.0 9.0 10.0 4.0 3.0 -324.0 8.0 1.0 1.0 4.0 0.0 3.0 4.0 4.0 9.0 4.0 3.0 10.0 4.0 4.0 5.0 10.0 0.0 8.0 8.0 8.0 2.0 1.0 2.0 8.0 9.0 7.0 3.0 0.0 6.0 9.0 7.0 7.0 4.0 5.0 10.0 5.0 0.0 4.0 1.0 0.0 2.0 4.0 4.0 10.0 4.0 1.0 0.0 3.0 5.0 8.0 10.0 2.0 10.0 
5.0 6.0 8.0 2.0 3.0 8.0 0.0 3.0 4.0 3.0 0.0 0.0 8.0 -295.0 0.0 3.0 5.0 6.0 10.0 7.0 8.0 3.0 8.0 10.0 9.0 1.0 1.0 1.0 9.0 4.0 10.0 2.0 9.0 7.0 1.0 5.0 4.0 1.0 10.0 6.0 0.0 8.0 6.0 4.0 1.0 5.0 4.0 6.0 4.0 6.0 1.0 3.0 4.0 0.0 9.0 0.0 8.0 3.0 3.0 1.0 6.0 3.0 4.0 9.0 5.0 2.0 
8.0 6.0 8.0 1.0 1.0 1.0 2.0 0.0 2.0 9.0 4.0 2.0 1.0 0.0 -295.0 5.0 9.0 2.0 6.0 5.0 3.0 4.0 10.0 0.0 8.0 3.0 5.0 6.0 3.0 6.0 0.0 1.0 0.0 8.0 8.0 7.0 8.0 2.0 6.0 2.0 10.0 1.0 1.0 10.0 10.0 6.0 4.0 4.0 0.0 7.0 2.0 6.0 6.0 9.0 9.0 3.0 4.0 10.0 6.0 5.0 6.0 1.0 1.0 4.0 0.0 8.0 
10.0 9.0 1.0 8.0 1.0 3.0 1.0 2.0 5.0 6.0 3.0 0.0 1.0 3.0 5.0 -294.0 5.0 5.0 4.0 0.0 1.0 7.0 2.0 10.0 8.0 9.0 1.0 0.0 10.0 6.0 8.0 3.0 7.0 7.0 2.0 5.0 8.0 0.0 9.0 2.0 5.0 3.0 9.0 8.0 3.0 3.0 3.0 1.0 0.0 6.0 6.0 3.0 9.0 0.0 4.0 7.0 6.0 5.0 2.0 3.0 4.0 8.0 3.0 10.0 0.0 6.0 
6.0 9.0 0.0 0.0 10.0 8.0 1.0 1.0 9.0 7.0 9.0 5.0 4.0 5.0 9.0 5.0 -335.0 8.0 10.0 9.0 6.0 2.0 6.0 4.0 7.0 9.0 10.0 10.0 1.0 1.0 0.0 4.0 6.0 2.0 7.0 9.0 0.0 10.0 5.0 8.0 3.0 4.0 10.0 9.0 3.0 0.0 6.0 3.0 2.0 7.0 0.0 6.0 3.0 7.0 6.0 0.0 1.0 10.0 8.0 0.0 4.0 9.0 1.0 2.0 3.0 6.0 
5.0 1.0 5.0 8.0 8.0 1.0 2.0 1.0 10.0 1.0 4.0 3.0 0.0 6.0 2.0 5.0 8.0 -331.0 7.0 10.0 7.0 7.0 9.0 9.0 10.0 10.0 2.0 10.0 1.0 6.0 7.0 1.0 4.0 7.0 8.0 6.0 9.0 5.0 10.0 10.0 0.0 3.0 9.0 0.0 0.0 3.0 6.0 8.0 2.0 0.0 2.0 3.0 0.0 4.0 6.0 3.0 1.0 3.0 9.0 3.0 9.0 10.0 2.0 10.0 1.0 9.0 
1.0 4.0 10.0 2.0 5.0 8.0 2.0 7.0 8.0 10.0 6.0 3.0 3.0 10.0 6.0 4.0 10.0 7.0 -295.0 8.0 1.0 6.0 1.0 4.0 7.0 5.0 5.0 9.0 7.0 4.0 9.0 9.0 9.0 2.0 5.0 5.0 5.0 2.0 0.0 7.0 0.0 3.0 3.0 3.0 1.0 0.0 2.0 4.0 0.0 9.0 2.0 6.0 5.0 5.0 2.0 1.0 9.0 0.0 1.0 1.0 5.0 1.0 0.0 4.0 7.0 5.0 
5.0 8.0 9.0 9.0 6.0 1.0 5.0 2.0 1.0 5.0 3.0 2.0 4.0 7.0 5.0 0.0 9.0 10.0 8.0 -315.0 9.0 6.0 3.0 1.0 7.0 8.0 7.0 8.0 1.0 6.0 2.0 5.0 10.0 8.0 9.0 5.0 2.0 4.0 1.0 3.0 1.0 5.0 6.0 0.0 10.0 0.0 7.0 3.0 10.0 0.0 3.0 9.0 1.0 2.0 1.0 10.0 6.0 0.0 8.0 9.0 0.0 3.0 5.0 7.0 1.0 4.0 
3.0 3.0 5.0 2.0 0.0 6.0 8.0 2.0 9.0 7.0 4.0 0.0 4.0 8.0 3.0 1.0 6.0 7.0 1.0 9.0 -345.0 10.0 0.0 10.0 5.0 6.0 4.0 1.0 6.0 9.0 0.0 10.0 3.0 6.0 6.0 10.0 8.0 8.0 7.0 6.0 2.0 5.0 3.0 9.0 10.0 8.0 3.0 3.0 8.0 1.0 10.0 10.0 1.0 3.0 9.0 9.0 9.0 0.0 0.0 6.0 4.0 7.0 6.0 9.0 4.0 3.0 
0.0 7.0 4.0 10.0 10.0 3.0 7.0 9.0 5.0 4.0 7.0 3.0 9.0 3.0 4.0 7.0 2.0 7.0 6.0 6.0 10.0 -354.0 6.0 6.0 3.0 6.0 7.0 8.0 10.0 0.0 5.0 5.0 9.0 6.0 4.0 0.0 2.0 9.0 6.0 0.0 8.0 8.0 5.0 2.0 5.0 10.0 0.0 3.0 2.0 5.0 5.0 2.0 2.0 7.0 8.0 1.0 0.0 10.0 9.0 7.0 5.0 8.0 10.0 5.0 5.0 7.0 
0.0 9.0 4.0 3.0 3.0 3.0 1.0 5.0 0.0 6.0 3.0 5.0 4.0 8.0 10.0 2.0 6.0 9.0 1.0 3.0 0.0 6.0 -315.0 0.0 4.0 4.0 7.0 5.0 10.0 5.0 3.0 4.0 6.0 8.0 6.0 10.0 5.0 5.0 3.0 8.0 5.0 6.0 2.0 2.0 8.0 4.0 0.0 10.0 2.0 2.0 5.0 7.0 5.0 2.0 10.0 7.0 2.0 7.0 5.0 7.0 4.0 5.0 6.0 9.0 5.0 4.0 
3.0 10.0 6.0 5.0 0.0 8.0 10.0 6.0 9.0 4.0 1.0 0.0 3.0 10.0 0.0 10.0 4.0 9.0 4.0 1.0 10.0 6.0 0.0 -322.0 7.0 9.0 8.0 8.0 4.0 7.0 0.0 8.0 8.0 1.0 8.0 8.0 2.0 3.0 6.0 0.0 1.0 9.0 1.0 2.0 2.0 6.0 10.0 6.0 2.0 2.0 6.0 1.0 1.0 8.0 9.0 5.0 1.0 6.0 3.0 3.0 6.0 2.0 9.0 7.0 5.0 3.0 
2.0 4.0 7.0 1.0 2.0 9.0 2.0 6.0 8.0 3.0 2.0 2.0 10.0 9.0 8.0 8.0 7.0 10.0 7.0 7.0 5.0 3.0 4.0 7.0 -332.0 10.0 7.0 2.0 0.0 0.0 1.0 10.0 8.0 8.0 6.0 7.0 4.0 7.0 8.0 0.0 8.0 9.0 3.0 3.0 4.0 1.0 1.0 5.0 9.0 7.0 0.0 3.0 1.0 4.0 10.0 3.0 9.0 5.0 6.0 3.0 3.0 8.0 2.0 8.0 1.0 5.0 
6.0 8.0 9.0 1.0 0.0 7.0 5.0 9.0 10.0 2.0 1.0 8.0 4.0 1.0 3.0 9.0 9.0 10.0 5.0 8.0 6.0 6.0 4.0 9.0 10.0 -335.0 1.0 6.0 9.0 0.0 8.0 8.0 4.0 0.0 4.0 4.0 1.0 7.0 6.0 2.0 0.0 6.0 1.0 8.0 4.0 4.0 3.0 7.0 6.0 7.0 10.0 7.0 9.0 4.0 7.0 3.0 10.0 4.0 2.0 5.0 7.0 2.0 3.0 4.0 2.0 0.0 
1.0 6.0 2.0 8.0 9.0 3.0 5.0 5.0 3.0 0.0 5.0 3.0 4.0 1.0 5.0 1.0 10.0 2.0 5.0 7.0 4.0 7.0 7.0 8.0 7.0 1.0 -325.0 5.0 0.0 0.0 0.0 7.0 9.0 6.0 2.0 7.0 3.0 8.0 10.0 9.0 9.0 0.0 7.0 1.0 6.0 7.0 5.0 4.0 9.0 3.0 1.0 6.0 3.0 3.0 7.0 6.0 10.0 6.0 8.0 5.0 3.0 5.0 10.0 3.0 8.0 5.0 
7.0 10.0 10.0 5.0 9.0 4.0 10.0 10.0 8.0 8.0 4.0 9.0 5.0 1.0 6.0 0.0 10.0 10.0 9.0 8.0 1.0 8.0 5.0 8.0 2.0 6.0 5.0 -376.0 4.0 3.0 10.0 8.0 1.0 3.0 10.0 8.0 1.0 1.0 9.0 7.0 10.0 0.0 3.0 9.0 8.0 4.0 2.0 4.0 0.0 10.0 8.0 3.0 9.0 6.0 5.0 6.0 8.0 9.0 3.0 7.0 1.0 3.0 6.0 0.0 8.0 1.0 
2.0 7.0 2.0 4.0 3.0 5.0 5.0 7.0 1.0 9.0 3.0 9.0 10.0 9.0 3.0 10.0 1.0 1.0 7.0 1.0 6.0 10.0 10.0 4.0 0.0 9.0 0.0 4.0 -350.0 7.0 5.0 9.0 10.0 10.0 2.0 9.0 4.0 6.0 7.0 8.0 6.0 10.0 0.0 6.0 8.0 7.0 0.0 8.0 3.0 6.0 5.0 5.0 1.0 4.0 1.0 4.0 3.0 3.0 10.0 2.0 9.0 9.0 5.0 6.0 6.0 4.0 
0.0 10.0 2.0 3.0 4.0 3.0 1.0 5.0 4.0 6.0 6.0 4.0 0.0 4.0 6.0 6.0 1.0 6.0 4.0 6.0 9.0 0.0 5.0 7.0 0.0 0.0 0.0 3.0 7.0 -296.0 3.0 5.0 5.0 8.0 9.0 5.0 5.0 4.0 3.0 8.0 5.0 10.0 0.0 5.0 0.0 3.0 8.0 10.0 9.0 2.0 7.0 9.0 1.0 0.0 7.0 10.0 1.0 1.0 5.0 7.0 1.0 9.0 9.0 0.0 9.0 1.0 
6.0 9.0 10.0 8.0 9.0 1.0 7.0 5.0 5.0 8.0 3.0 10.0 8.0 10.0 0.0 8.0 0.0 7.0 9.0 2.0 0.0 5.0 3.0 0.0 1.0 8.0 0.0 10.0 5.0 3.0 -367.0 5.0 9.0 2.0 3.0 9.0 5.0 9.0 0.0 9.0 7.0 4.0 10.0 10.0 2.0 9.0 1.0 0.0 10.0 8.0 5.0 1.0 6.0 8.0 10.0 10.0 2.0 8.0 10.0 4.0 2.0 8.0 4.0 5.0 8.0 4.0 
3.0 1.0 9.0 3.0 4.0 8.0 5.0 1.0 0.0 5.0 9.0 2.0 8.0 2.0 1.0 3.0 4.0 1.0 9.0 5.0 10.0 5.0 4.0 8.0 10.0 8.0 7.0 8.0 9.0 5.0 5.0 -332.0 5.0 10.0 3.0 10.0 6.0 6.0 0.0 6.0 4.0 8.0 9.0 1.0 8.0 4.0 1.0 8.0 6.0 2.0 6.0 5.0 1.0 7.0 2.0 9.0 7.0 5.0 6.0 4.0 3.0 1.0 2.0 0.0 9.0 6.0 
1.0 3.0 7.0 5.0 1.0 8.0 0.0 6.0 4.0 2.0 0.0 0.0 8.0 9.0 0.0 7.0 6.0 4.0 9.0 10.0 3.0 9.0 6.0 8.0 8.0 4.0 9.0 1.0 10.0 5.0 9.0 5.0 -321.0 5.0 5.0 4.0 10.0 1.0 8.0 7.0 2.0 2.0 5.0 4.0 0.0 7.0 9.0 5.0 1.0 6.0 9.0 0.0 5.0 10.0 8.0 1.0 2.0 7.0 2.0 7.0 1.0 2.0 6.0 7.0 0.0 6.0 
6.0 5.0 9.0 0.0 8.0 1.0 3.0 8.0 6.0 4.0 0.0 7.0 2.0 7.0 8.0 7.0 2.0 7.0 2.0 8.0 6.0 6.0 8.0 1.0 8.0 0.0 6.0 3.0 10.0 8.0 2.0 10.0 5.0 -312.0 1.0 6.0 6.0 2.0 2.0 2.0 1.0 2.0 3.0 6.0 1.0 1.0 4.0 6.0 6.0 9.0 1.0 5.0 8.0 3.0 3.0 6.0 1.0 8.0 6.0 5.0 9.0 1.0 5.0 7.0 3.0 10.0 
7.0 3.0 3.0 5.0 6.0 2.0 7.0 9.0 7.0 4.0 0.0 2.0 1.0 1.0 8.0 2.0 7.0 8.0 5.0 9.0 6.0 4.0 6.0 8.0 6.0 4.0 2.0 10.0 2.0 9.0 3.0 3.0 5.0 1.0 -332.0 3.0 3.0 4.0 5.0 4.0 3.0 4.0 8.0 9.0 2.0 5.0 10.0 6.0 5.0 3.0 5.0 8.0 6.0 5.0 3.0 4.0 9.0 10.0 2.0 8.0 7.0 8.0 10.0 3.0 3.0 2.0 
9.0 4.0 3.0 3.0 3.0 10.0 4.0 3.0 6.0 9.0 8.0 6.0 2.0 5.0 7.0 5.0 9.0 6.0 5.0 5.0 10.0 0.0 10.0 8.0 7.0 4.0 7.0 8.0 9.0 5.0 9.0 10.0 4.0 6.0 3.0 -360.0 6.0 4.0 6.0 10.0 2.0 1.0 8.0 3.0 10.0 1.0 5.0 3.0 0.0 2.0 5.0 10.0 0.0 8.0 2.0 10.0 6.0 7.0 4.0 7.0 2.0 5.0 5.0 9.0 4.0 3.0 
10.0 4.0 7.0 4.0 4.0 6.0 9.0 3.0 0.0 10.0 9.0 4.0 8.0 4.0 8.0 8.0 0.0 9.0 5.0 2.0 8.0 2.0 5.0 2.0 4.0 1.0 3.0 1.0 4.0 5.0 5.0 6.0 10.0 6.0 3.0 6.0 -349.0 7.0 4.0 1.0 8.0 7.0 7.0 5.0 5.0 2.0 6.0 10.0 10.0 5.0 3.0 4.0 4.0 2.0 8.0 9.0 6.0 6.0 7.0 2.0 10.0 4.0 7.0 5.0 10.0 0.0 
2.0 3.0 0.0 7.0 3.0 10.0 2.0 4.0 5.0 6.0 8.0 10.0 9.0 1.0 2.0 0.0 10.0 5.0 2.0 4.0 8.0 9.0 5.0 3.0 7.0 7.0 8.0 1.0 6.0 4.0 9.0 6.0 1.0 2.0 4.0 4.0 7.0 -320.0 8.0 4.0 2.0 3.0 10.0 0.0 9.0 3.0 6.0 8.0 0.0 10.0 5.0 10.0 4.0 8.0 10.0 1.0 3.0 4.0 2.0 8.0 5.0 1.0 0.0 3.0 5.0 4.0 
9.0 3.0 5.0 6.0 2.0 3.0 10.0 0.0 2.0 0.0 0.0 0.0 7.0 10.0 6.0 9.0 5.0 10.0 0.0 1.0 7.0 6.0 3.0 6.0 8.0 6.0 10.0 9.0 7.0 3.0 0.0 0.0 8.0 2.0 5.0 6.0 4.0 8.0 -329.0 8.0 2.0 10.0 3.0 10.0 8.0 8.0 0.0 5.0 7.0 0.0 5.0 3.0 7.0 10.0 7.0 5.0 3.0 9.0 2.0 0.0 10.0 10.0 3.0 2.0 3.0 3.0 
6.0 5.0 0.0 8.0 10.0 0.0 3.0 3.0 5.0 6.0 9.0 10.0 3.0 6.0 2.0 2.0 8.0 10.0 7.0 3.0 6.0 0.0 8.0 0.0 0.0 2.0 9.0 7.0 8.0 8.0 9.0 6.0 7.0 2.0 4.0 10.0 1.0 4.0 8.0 -338.0 8.0 4.0 2.0 6.0 6.0 4.0 8.0 7.0 1.0 8.0 5.0 10.0 9.0 4.0 4.0 6.0 0.0 2.0 3.0 7.0 8.0 7.0 3.0 8.0 2.0 1.0 
2.0 10.0 6.0 1.0 5.0 0.0 10.0 3.0 9.0 2.0 10.0 6.0 0.0 0.0 10.0 5.0 3.0 0.0 0.0 1.0 2.0 8.0 5.0 1.0 8.0 0.0 9.0 10.0 6.0 5.0 7.0 4.0 2.0 1.0 3.0 2.0 8.0 2.0 2.0 8.0 -280.0 1.0 10.0 1.0 1.0 3.0 6.0 2.0 8.0 0.0 2.0 8.0 3.0 6.0 3.0 3.0 10.0 5.0 5.0 5.0 9.0 9.0 3.0 0.0 0.0 1.0 
7.0 2.0 9.0 3.0 9.0 1.0 5.0 8.0 7.0 10.0 0.0 10.0 6.0 8.0 1.0 3.0 4.0 3.0 3.0 5.0 5.0 8.0 6.0 9.0 9.0 6.0 0.0 0.0 10.0 10.0 4.0 8.0 2.0 2.0 4.0 1.0 7.0 3.0 10.0 4.0 1.0 -348.0 10.0 7.0 2.0 8.0 3.0 9.0 2.0 10.0 6.0 0.0 9.0 3.0 3.0 8.0 6.0 8.0 0.0 6.0 7.0 4.0 4.0 8.0 9.0 3.0 
1.0 3.0 3.0 5.0 4.0 6.0 10.0 8.0 2.0 1.0 3.0 6.0 9.0 6.0 1.0 9.0 10.0 9.0 3.0 6.0 3.0 5.0 2.0 1.0 3.0 1.0 7.0 3.0 0.0 0.0 10.0 9.0 5.0 3.0 8.0 8.0 7.0 10.0 3.0 2.0 10.0 10.0 -333.0 3.0 6.0 5.0 4.0 10.0 0.0 6.0 8.0 3.0 4.0 9.0 2.0 9.0 6.0 9.0 2.0 4.0 1.0 4.0 3.0 5.0 10.0 5.0 
10.0 4.0 7.0 0.0 0.0 8.0 4.0 10.0 1.0 10.0 3.0 10.0 7.0 4.0 10.0 8.0 9.0 0.0 3.0 0.0 9.0 2.0 2.0 2.0 3.0 8.0 1.0 9.0 6.0 5.0 10.0 1.0 4.0 6.0 9.0 3.0 5.0 0.0 10.0 6.0 1.0 7.0 3.0 -337.0 0.0 6.0 7.0 10.0 0.0 7.0 10.0 3.0 1.0 10.0 7.0 4.0 3.0 4.0 6.0 9.0 6.0 7.0 9.0 2.0 6.0 0.0 
3.0 5.0 9.0 3.0 1.0 10.0 9.0 2.0 3.0 3.0 7.0 8.0 7.0 1.0 10.0 3.0 3.0 0.0 1.0 10.0 10.0 5.0 8.0 2.0 4.0 4.0 6.0 8.0 8.0 0.0 2.0 8.0 0.0 1.0 2.0 10.0 5.0 9.0 8.0 6.0 1.0 2.0 6.0 0.0 -315.0 1.0 8.0 0.0 7.0 6.0 9.0 4.0 2.0 3.0 0.0 4.0 5.0 6.0 5.0 4.0 8.0 6.0 0.0 5.0 10.0 9.0 
0.0 10.0 0.0 9.0 2.0 7.0 7.0 1.0 1.0 3.0 1.0 9.0 4.0 5.0 6.0 3.0 0.0 3.0 0.0 0.0 8.0 10.0 4.0 6.0 1.0 4.0 7.0 4.0 7.0 3.0 9.0 4.0 7.0 1.0 5.0 1.0 2.0 3.0 8.0 4.0 3.0 8.0 5.0 6.0 1.0 -301.0 4.0 1.0 8.0 8.0 5.0 6.0 7.0 1.0 9.0 3.0 8.0 7.0 7.0 2.0 5.0 1.0 2.0 10.0 7.0 8.0 
5.0 9.0 7.0 9.0 10.0 6.0 2.0 8.0 10.0 4.0 5.0 7.0 5.0 4.0 4.0 3.0 6.0 6.0 2.0 7.0 3.0 0.0 0.0 10.0 1.0 3.0 5.0 2.0 0.0 8.0 1.0 1.0 9.0 4.0 10.0 5.0 6.0 6.0 0.0 8.0 6.0 3.0 4.0 7.0 8.0 4.0 -301.0 3.0 7.0 1.0 9.0 5.0 7.0 9.0 3.0 5.0 1.0 2.0 3.0 1.0 2.0 3.0 1.0 3.0 2.0 1.0 
3.0 8.0 0.0 8.0 5.0 10.0 5.0 5.0 4.0 2.0 9.0 0.0 10.0 6.0 4.0 1.0 3.0 8.0 4.0 3.0 3.0 3.0 10.0 6.0 5.0 7.0 4.0 4.0 8.0 10.0 0.0 8.0 5.0 6.0 6.0 3.0 10.0 8.0 5.0 7.0 2.0 9.0 10.0 10.0 0.0 1.0 3.0 -371.0 7.0 6.0 3.0 7.0 10.0 3.0 1.0 10.0 2.0 10.0 7.0 6.0 7.0 4.0 10.0 10.0 10.0 7.0 
4.0 4.0 4.0 8.0 0.0 6.0 9.0 1.0 4.0 1.0 5.0 3.0 5.0 4.0 0.0 0.0 2.0 2.0 0.0 10.0 8.0 2.0 2.0 2.0 9.0 6.0 9.0 0.0 3.0 9.0 10.0 6.0 1.0 6.0 5.0 0.0 10.0 0.0 7.0 1.0 8.0 2.0 0.0 0.0 7.0 8.0 7.0 7.0 -288.0 4.0 9.0 7.0 5.0 8.0 2.0 1.0 0.0 0.0 10.0 1.0 9.0 7.0 8.0 5.0 4.0 1.0 
6.0 6.0 5.0 3.0 8.0 1.0 3.0 3.0 1.0 2.0 1.0 4.0 0.0 6.0 7.0 6.0 7.0 0.0 9.0 0.0 1.0 5.0 2.0 2.0 7.0 7.0 3.0 10.0 6.0 2.0 8.0 2.0 6.0 9.0 3.0 2.0 5.0 10.0 0.0 8.0 0.0 10.0 6.0 7.0 6.0 8.0 1.0 6.0 4.0 -301.0 9.0 3.0 1.0 1.0 8.0 8.0 5.0 5.0 6.0 1.0 1.0 5.0 10.0 1.0 5.0 8.0 
5.0 7.0 8.0 5.0 10.0 1.0 0.0 8.0 9.0 0.0 7.0 0.0 4.0 1.0 2.0 6.0 0.0 2.0 2.0 3.0 10.0 5.0 5.0 6.0 0.0 10.0 1.0 8.0 5.0 7.0 5.0 6.0 9.0 1.0 5.0 5.0 3.0 5.0 5.0 5.0 2.0 6.0 8.0 10.0 9.0 5.0 9.0 3.0 9.0 9.0 -339.0 8.0 2.0 8.0 7.0 5.0 7.0 7.0 1.0 1.0 3.0 10.0 3.0 10.0 4.0 7.0 
6.0 10.0 2.0 7.0 5.0 6.0 9.0 3.0 6.0 9.0 2.0 2.0 1.0 3.0 6.0 3.0 6.0 3.0 6.0 9.0 10.0 2.0 7.0 1.0 3.0 7.0 6.0 3.0 5.0 9.0 1.0 5.0 0.0 5.0 8.0 10.0 4.0 10.0 3.0 10.0 8.0 0.0 3.0 3.0 4.0 6.0 5.0 7.0 7.0 3.0 8.0 -336.0 3.0 4.0 5.0 9.0 5.0 9.0 3.0 1.0 9.0 7.0 4.0 1.0 9.0 0.0 
3.0 1.0 9.0 6.0 5.0 7.0 3.0 10.0 3.0 4.0 3.0 7.0 0.0 4.0 6.0 9.0 3.0 0.0 5.0 1.0 1.0 2.0 5.0 1.0 1.0 9.0 3.0 9.0 1.0 1.0 6.0 1.0 5.0 8.0 6.0 0.0 4.0 4.0 7.0 9.0 3.0 9.0 4.0 1.0 2.0 7.0 7.0 10.0 5.0 1.0 2.0 3.0 -290.0 10.0 2.0 7.0 0.0 7.0 4.0 2.0 8.0 0.0 0.0 9.0 8.0 7.0 
7.0 1.0 7.0 6.0 1.0 10.0 1.0 0.0 5.0 2.0 7.0 3.0 2.0 0.0 9.0 0.0 7.0 4.0 5.0 2.0 3.0 7.0 2.0 8.0 4.0 4.0 3.0 6.0 4.0 0.0 8.0 7.0 10.0 3.0 5.0 8.0 2.0 8.0 10.0 4.0 6.0 3.0 9.0 10.0 3.0 1.0 9.0 3.0 8.0 1.0 8.0 4.0 10.0 -299.0 1.0 1.0 8.0 9.0 3.0 1.0 4.0 1.0 4.0 0.0 3.0 4.0 
1.0 7.0 0.0 6.0 2.0 1.0 5.0 1.0 6.0 10.0 3.0 7.0 4.0 9.0 9.0 4.0 6.0 6.0 2.0 1.0 9.0 8.0 10.0 9.0 10.0 7.0 7.0 5.0 1.0 7.0 10.0 2.0 8.0 3.0 3.0 2.0 8.0 10.0 7.0 4.0 3.0 3.0 2.0 7.0 0.0 9.0 3.0 1.0 2.0 8.0 7.0 5.0 2.0 1.0 -313.0 3.0 9.0 0.0 1.0 10.0 0.0 0.0 5.0 3.0 8.0 1.0 
4.0 2.0 1.0 5.0 2.0 2.0 0.0 7.0 6.0 2.0 6.0 10.0 4.0 0.0 3.0 7.0 0.0 3.0 1.0 10.0 9.0 1.0 7.0 5.0 3.0 3.0 6.0 6.0 4.0 10.0 10.0 9.0 1.0 6.0 4.0 10.0 9.0 1.0 5.0 6.0 3.0 8.0 9.0 4.0 4.0 3.0 5.0 10.0 1.0 8.0 5.0 9.0 7.0 1.0 3.0 -314.0 0.0 0.0 6.0 5.0 6.0 0.0 5.0 9.0 5.0 8.0 
7.0 1.0 6.0 7.0 7.0 5.0 1.0 1.0 10.0 8.0 6.0 3.0 10.0 8.0 4.0 6.0 1.0 1.0 9.0 6.0 9.0 0.0 2.0 1.0 9.0 10.0 10.0 8.0 3.0 1.0 2.0 7.0 2.0 1.0 9.0 6.0 6.0 3.0 3.0 0.0 10.0 6.0 6.0 3.0 5.0 8.0 1.0 2.0 0.0 5.0 7.0 5.0 0.0 8.0 9.0 0.0 -320.0 3.0 5.0 8.0 4.0 3.0 0.0 5.0 10.0 8.0 
8.0 10.0 2.0 7.0 2.0 3.0 9.0 1.0 3.0 9.0 10.0 9.0 4.0 3.0 10.0 5.0 10.0 3.0 0.0 0.0 0.0 10.0 7.0 6.0 5.0 4.0 6.0 9.0 3.0 1.0 8.0 5.0 7.0 8.0 10.0 7.0 6.0 4.0 9.0 2.0 5.0 8.0 9.0 4.0 6.0 7.0 2.0 10.0 0.0 5.0 7.0 9.0 7.0 9.0 0.0 0.0 3.0 -368.0 5.0 1.0 9.0 7.0 7.0 9.0 7.0 7.0 
9.0 4.0 4.0 0.0 10.0 1.0 2.0 4.0 0.0 1.0 6.0 7.0 1.0 3.0 6.0 2.0 8.0 9.0 1.0 8.0 0.0 9.0 5.0 3.0 6.0 2.0 8.0 3.0 10.0 5.0 10.0 6.0 2.0 6.0 2.0 4.0 7.0 2.0 2.0 3.0 5.0 0.0 2.0 6.0 5.0 7.0 3.0 7.0 10.0 6.0 1.0 3.0 4.0 3.0 1.0 6.0 5.0 5.0 -296.0 8.0 7.0 5.0 3.0 8.0 4.0 1.0 
5.0 4.0 8.0 3.0 5.0 10.0 5.0 10.0 8.0 1.0 2.0 10.0 0.0 1.0 5.0 3.0 0.0 3.0 1.0 9.0 6.0 7.0 7.0 3.0 3.0 5.0 5.0 7.0 2.0 7.0 4.0 4.0 7.0 5.0 8.0 7.0 2.0 8.0 0.0 7.0 5.0 6.0 4.0 9.0 4.0 2.0 1.0 6.0 1.0 1.0 1.0 1.0 2.0 1.0 10.0 5.0 8.0 1.0 8.0 -308.0 9.0 9.0 0.0 5.0 6.0 6.0 
9.0 3.0 10.0 3.0 4.0 1.0 3.0 4.0 0.0 1.0 8.0 8.0 3.0 6.0 6.0 4.0 4.0 9.0 5.0 0.0 4.0 5.0 4.0 6.0 3.0 7.0 3.0 1.0 9.0 1.0 2.0 3.0 1.0 9.0 7.0 2.0 10.0 5.0 10.0 8.0 9.0 7.0 1.0 6.0 8.0 5.0 2.0 7.0 9.0 1.0 3.0 9.0 8.0 4.0 0.0 6.0 4.0 9.0 7.0 9.0 -338.0 8.0 4.0 9.0 9.0 3.0 
10.0 0.0 7.0 9.0 3.0 9.0 10.0 0.0 7.0 10.0 2.0 7.0 5.0 3.0 1.0 8.0 9.0 10.0 1.0 3.0 7.0 8.0 5.0 2.0 8.0 2.0 5.0 3.0 9.0 9.0 8.0 1.0 2.0 1.0 8.0 5.0 4.0 1.0 10.0 7.0 9.0 4.0 4.0 7.0 6.0 1.0 3.0 4.0 7.0 5.0 10.0 7.0 0.0 1.0 0.0 0.0 3.0 7.0 5.0 9.0 8.0 -340.0 7.0 10.0 2.0 2.0 
10.0 0.0 10.0 0.0 1.0 3.0 1.0 3.0 7.0 10.0 2.0 3.0 8.0 4.0 1.0 3.0 1.0 2.0 0.0 5.0 6.0 10.0 6.0 9.0 2.0 3.0 10.0 6.0 5.0 9.0 4.0 2.0 6.0 5.0 10.0 5.0 7.0 0.0 3.0 3.0 3.0 4.0 3.0 9.0 0.0 2.0 1.0 10.0 8.0 10.0 3.0 4.0 0.0 4.0 5.0 5.0 0.0 7.0 3.0 0.0 4.0 7.0 -292.0 5.0 1.0 9.0 
10.0 0.0 10.0 8.0 1.0 8.0 6.0 2.0 4.0 9.0 6.0 10.0 10.0 9.0 4.0 10.0 2.0 10.0 4.0 7.0 9.0 5.0 9.0 7.0 8.0 4.0 3.0 0.0 6.0 0.0 5.0 0.0 7.0 7.0 3.0 9.0 5.0 3.0 2.0 8.0 0.0 8.0 5.0 2.0 5.0 10.0 3.0 10.0 5.0 1.0 10.0 1.0 9.0 0.0 3.0 9.0 5.0 9.0 8.0 5.0 9.0 10.0 5.0 -370.0 4.0 4.0 
9.0 0.0 1.0 5.0 8.0 10.0 10.0 10.0 3.0 7.0 0.0 0.0 2.0 5.0 0.0 0.0 3.0 1.0 7.0 1.0 4.0 5.0 5.0 5.0 1.0 2.0 8.0 8.0 6.0 9.0 8.0 9.0 0.0 3.0 3.0 4.0 10.0 5.0 3.0 2.0 0.0 9.0 10.0 6.0 10.0 7.0 2.0 10.0 4.0 5.0 4.0 9.0 8.0 3.0 8.0 5.0 10.0 7.0 4.0 6.0 9.0 2.0 1.0 4.0 -327.0 2.0 
0.0 0.0 4.0 10.0 9.0 1.0 0.0 6.0 7.0 5.0 10.0 8.0 10.0 2.0 8.0 6.0 6.0 9.0 5.0 4.0 3.0 7.0 4.0 3.0 5.0 0.0 5.0 1.0 4.0 1.0 4.0 6.0 6.0 10.0 2.0 3.0 0.0 4.0 3.0 1.0 1.0 3.0 5.0 0.0 9.0 8.0 1.0 7.0 1.0 8.0 7.0 0.0 7.0 4.0 1.0 8.0 8.0 7.0 1.0 6.0 3.0 2.0 9.0 4.0 2.0 -294.0 

